1293610
32,95,6,30,61,85,43,44,25,16,107,94,46,81,2,51,84,59,29,52,34,101,98,35,5,1,82,45,90,3,83,63,20,79,67,4,103,56,92,74,23,15,100,53,17,80,48,21,13,68,40,8,28,36,12,55,78,33,108,106,42,60,65,88,7,18,50,76,73,19,62,87,96,93,105,99,71,47,102,54,58,104,22,64,24,109,9,77,66,10,97,89,91,11,49,41,38,37,26,72,31,39,14,70,69,27,86,75,57